Results/Experiment 2 Results/New Benchmark/output_p1_0.00_p2_0.00_n_40_06.lp
clingo version 5.4.0
Reading from tempSRTISolver.lp ...
Solving...
Answer: 1
matched(1,2) matched(6,3) matched(7,4) matched(8,5) matched(3,6) matched(4,7) matched(5,8) matched(12,10) matched(9,11) matched(10,12) matched(11,9) matched(20,14) matched(18,15) matched(13,16) matched(19,17) matched(15,18) matched(17,19) matched(14,20) matched(16,13) matched(26,22) matched(21,23) matched(28,24) matched(27,25) matched(22,26) matched(25,27) matched(24,28) matched(23,21) matched(32,30) matched(29,31) matched(30,32) matched(31,29) matched(33,34) matched(38,35) matched(39,36) matched(40,37) matched(35,38) matched(36,39) matched(37,40) matched(34,33) matched(2,1)
Optimization: 326
Answer: 2
matched(1,2) matched(6,3) matched(7,4) matched(8,5) matched(3,6) matched(4,7) matched(5,8) matched(12,10) matched(9,11) matched(10,12) matched(11,9) matched(20,14) matched(18,15) matched(13,16) matched(19,17) matched(15,18) matched(17,19) matched(14,20) matched(16,13) matched(28,22) matched(26,23) matched(21,24) matched(27,25) matched(23,26) matched(25,27) matched(22,28) matched(24,21) matched(32,30) matched(29,31) matched(30,32) matched(31,29) matched(33,34) matched(38,35) matched(39,36) matched(40,37) matched(35,38) matched(36,39) matched(37,40) matched(34,33) matched(2,1)
Optimization: 325
Answer: 3
matched(1,2) matched(6,3) matched(7,4) matched(8,5) matched(3,6) matched(4,7) matched(5,8) matched(12,10) matched(9,11) matched(10,12) matched(11,9) matched(20,14) matched(18,15) matched(13,16) matched(19,17) matched(15,18) matched(17,19) matched(14,20) matched(16,13) matched(27,22) matched(26,23) matched(21,24) matched(28,25) matched(23,26) matched(22,27) matched(25,28) matched(24,21) matched(32,30) matched(29,31) matched(30,32) matched(31,29) matched(33,34) matched(38,35) matched(39,36) matched(40,37) matched(35,38) matched(36,39) matched(37,40) matched(34,33) matched(2,1)
Optimization: 321
Answer: 4
matched(1,2) matched(6,3) matched(7,4) matched(8,5) matched(3,6) matched(4,7) matched(5,8) matched(12,10) matched(9,11) matched(10,12) matched(11,9) matched(19,14) matched(18,15) matched(13,16) matched(20,17) matched(15,18) matched(14,19) matched(17,20) matched(16,13) matched(26,22) matched(21,23) matched(28,24) matched(27,25) matched(22,26) matched(25,27) matched(24,28) matched(23,21) matched(32,30) matched(29,31) matched(30,32) matched(31,29) matched(33,34) matched(38,35) matched(39,36) matched(40,37) matched(35,38) matched(36,39) matched(37,40) matched(34,33) matched(2,1)
Optimization: 318
Answer: 5
matched(1,2) matched(6,3) matched(7,4) matched(8,5) matched(3,6) matched(4,7) matched(5,8) matched(12,10) matched(9,11) matched(10,12) matched(11,9) matched(19,14) matched(18,15) matched(13,16) matched(20,17) matched(15,18) matched(14,19) matched(17,20) matched(16,13) matched(28,22) matched(26,23) matched(21,24) matched(27,25) matched(23,26) matched(25,27) matched(22,28) matched(24,21) matched(32,30) matched(29,31) matched(30,32) matched(31,29) matched(33,34) matched(38,35) matched(39,36) matched(40,37) matched(35,38) matched(36,39) matched(37,40) matched(34,33) matched(2,1)
Optimization: 317
Answer: 6
matched(1,2) matched(6,3) matched(7,4) matched(8,5) matched(3,6) matched(4,7) matched(5,8) matched(12,10) matched(9,11) matched(10,12) matched(11,9) matched(19,14) matched(18,15) matched(13,16) matched(20,17) matched(15,18) matched(14,19) matched(17,20) matched(16,13) matched(27,22) matched(26,23) matched(21,24) matched(28,25) matched(23,26) matched(22,27) matched(25,28) matched(24,21) matched(32,30) matched(29,31) matched(30,32) matched(31,29) matched(33,34) matched(38,35) matched(39,36) matched(40,37) matched(35,38) matched(36,39) matched(37,40) matched(34,33) matched(2,1)
Optimization: 313
Answer: 7
matched(7,2) matched(6,3) matched(1,4) matched(8,5) matched(3,6) matched(2,7) matched(5,8) matched(12,10) matched(9,11) matched(10,12) matched(11,9) matched(19,14) matched(18,15) matched(13,16) matched(20,17) matched(15,18) matched(14,19) matched(17,20) matched(16,13) matched(27,22) matched(26,23) matched(21,24) matched(28,25) matched(23,26) matched(22,27) matched(25,28) matched(24,21) matched(32,30) matched(29,31) matched(30,32) matched(31,29) matched(33,34) matched(38,35) matched(39,36) matched(40,37) matched(35,38) matched(36,39) matched(37,40) matched(34,33) matched(4,1)
Optimization: 312
Answer: 8
matched(1,2) matched(6,3) matched(7,4) matched(8,5) matched(3,6) matched(4,7) matched(5,8) matched(9,10) matched(12,11) matched(11,12) matched(10,9) matched(19,14) matched(18,15) matched(13,16) matched(20,17) matched(15,18) matched(14,19) matched(17,20) matched(16,13) matched(27,22) matched(26,23) matched(21,24) matched(28,25) matched(23,26) matched(22,27) matched(25,28) matched(24,21) matched(32,30) matched(29,31) matched(30,32) matched(31,29) matched(39,34) matched(38,35) matched(33,36) matched(40,37) matched(35,38) matched(34,39) matched(37,40) matched(36,33) matched(2,1)
Optimization: 311
Answer: 9
matched(7,2) matched(6,3) matched(1,4) matched(8,5) matched(3,6) matched(2,7) matched(5,8) matched(12,10) matched(9,11) matched(10,12) matched(11,9) matched(19,14) matched(18,15) matched(13,16) matched(20,17) matched(15,18) matched(14,19) matched(17,20) matched(16,13) matched(26,22) matched(21,23) matched(28,24) matched(27,25) matched(22,26) matched(25,27) matched(24,28) matched(23,21) matched(32,30) matched(29,31) matched(30,32) matched(31,29) matched(39,34) matched(38,35) matched(33,36) matched(40,37) matched(35,38) matched(34,39) matched(37,40) matched(36,33) matched(4,1)
Optimization: 310
Answer: 10
matched(7,2) matched(6,3) matched(1,4) matched(8,5) matched(3,6) matched(2,7) matched(5,8) matched(12,10) matched(9,11) matched(10,12) matched(11,9) matched(19,14) matched(18,15) matched(13,16) matched(20,17) matched(15,18) matched(14,19) matched(17,20) matched(16,13) matched(28,22) matched(26,23) matched(21,24) matched(27,25) matched(23,26) matched(25,27) matched(22,28) matched(24,21) matched(32,30) matched(29,31) matched(30,32) matched(31,29) matched(39,34) matched(38,35) matched(33,36) matched(40,37) matched(35,38) matched(34,39) matched(37,40) matched(36,33) matched(4,1)
Optimization: 309
Answer: 11
matched(1,2) matched(8,3) matched(7,4) matched(6,5) matched(5,6) matched(4,7) matched(3,8) matched(12,10) matched(9,11) matched(10,12) matched(11,9) matched(19,14) matched(18,15) matched(13,16) matched(20,17) matched(15,18) matched(14,19) matched(17,20) matched(16,13) matched(27,22) matched(26,23) matched(21,24) matched(28,25) matched(23,26) matched(22,27) matched(25,28) matched(24,21) matched(32,30) matched(29,31) matched(30,32) matched(31,29) matched(39,34) matched(38,35) matched(33,36) matched(40,37) matched(35,38) matched(34,39) matched(37,40) matched(36,33) matched(2,1)
Optimization: 308
Answer: 12
matched(1,2) matched(6,3) matched(7,4) matched(8,5) matched(3,6) matched(4,7) matched(5,8) matched(12,10) matched(9,11) matched(10,12) matched(11,9) matched(19,14) matched(18,15) matched(13,16) matched(20,17) matched(15,18) matched(14,19) matched(17,20) matched(16,13) matched(27,22) matched(26,23) matched(21,24) matched(28,25) matched(23,26) matched(22,27) matched(25,28) matched(24,21) matched(32,30) matched(29,31) matched(30,32) matched(31,29) matched(39,34) matched(38,35) matched(33,36) matched(40,37) matched(35,38) matched(34,39) matched(37,40) matched(36,33) matched(2,1)
Optimization: 306
Answer: 13
matched(7,2) matched(6,3) matched(1,4) matched(8,5) matched(3,6) matched(2,7) matched(5,8) matched(12,10) matched(9,11) matched(10,12) matched(11,9) matched(19,14) matched(18,15) matched(13,16) matched(20,17) matched(15,18) matched(14,19) matched(17,20) matched(16,13) matched(27,22) matched(26,23) matched(21,24) matched(28,25) matched(23,26) matched(22,27) matched(25,28) matched(24,21) matched(32,30) matched(29,31) matched(30,32) matched(31,29) matched(39,34) matched(38,35) matched(33,36) matched(40,37) matched(35,38) matched(34,39) matched(37,40) matched(36,33) matched(4,1)
Optimization: 305
OPTIMUM FOUND

Models       : 13
  Optimum    : yes
Optimization : 305
Calls        : 1
Time         : 2.329s (Solving: 0.30s 1st Model: 0.00s Unsat: 0.17s)
CPU Time     : 2.207s
